job_count = 15 ;
duration = [|13, 19, 14|12, 11, 11|20, 10, 11|10, 6, 7|15, 3, 12|9, 7, 12|21, 17, 5|14, 10, 6|4, 14, 12|5, 8, 6|10, 12, 4|4, 8, 5|10, 7, 2|6, 19, 3|14, 19, 10|] ;
machine_count = 3 ;
cost = [|29, 25, 52|27, 31, 40|31, 29, 51|26, 21, 32|16, 33, 50|26, 27, 48|26, 28, 27|24, 37, 32|23, 24, 37|30, 34, 50|17, 31, 34|27, 38, 30|16, 32, 53|26, 29, 48|29, 26, 51|] ;
deadline = [33, 33, 33, 33, 33, 33, 33, 33, 33, 33, 33, 33, 33, 33, 33] ;
release = [0, 0, 0, 0, 0, 0, 0, 0, 0, 0, 0, 0, 0, 0, 0] ;
resource = [|8, 8, 8|1, 1, 1|6, 6, 6|6, 6, 6|5, 5, 5|6, 6, 6|1, 1, 1|2, 2, 2|4, 4, 4|6, 6, 6|8, 8, 8|2, 2, 2|3, 3, 3|9, 9, 9|7, 7, 7|] ;
capacities = [10, 10, 10] ;
